(declare-fun var0 () String)
(declare-fun var1 () String)
(declare-fun var2 () String)
(declare-fun var3 () String)
(declare-fun var4 () String)
(declare-fun var5 () String)
(declare-fun var6 () String)
(declare-fun var7 () String)
(declare-fun var8 () String)
(declare-fun var9 () String)
(declare-fun var10 () String)
(declare-fun var11 () String)
(declare-fun var12 () String)
(declare-fun var13 () String)
(declare-fun var14 () String)
(declare-fun var15 () String)
(declare-fun var16 () String)
(declare-fun var17 () String)
(declare-fun var18 () String)
(declare-fun var19 () String)
(declare-fun var20 () String)
(declare-fun var21 () String)
(declare-fun var22 () String)
(declare-fun var23 () String)
(declare-fun var24 () String)
(declare-fun var25 () String)
(declare-fun var26 () String)
(declare-fun var27 () String)
(declare-fun var28 () String)
(declare-fun var29 () String)
(declare-fun var30 () String)
(declare-fun var31 () String)
(declare-fun var32 () String)
(declare-fun var33 () String)
(declare-fun var34 () String)
(declare-fun var35 () String)
(declare-fun var36 () String)
(declare-fun var37 () String)
(declare-fun var38 () String)
(declare-fun var39 () String)
(declare-fun var40 () String)
(declare-fun var41 () String)
(declare-fun var42 () String)
(declare-fun var43 () String)
(declare-fun var44 () String)
(declare-fun var45 () String)
(declare-fun var46 () String)
(declare-fun var47 () String)
(declare-fun var48 () String)
(declare-fun var49 () String)
(declare-fun var50 () String)
(declare-fun var51 () String)
(declare-fun var52 () String)
(declare-fun var53 () String)
(declare-fun var54 () String)
(declare-fun var55 () String)
(declare-fun var56 () String)
(declare-fun var57 () String)
(declare-fun var58 () String)
(declare-fun var59 () String)
(declare-fun var60 () String)
(assert (= var0 (Concat var1 var2)))
(assert (= var2 (Concat var3 var4)))
(assert (= var4 (Concat var5 var6)))
(assert (= var6 (Concat var7 var8)))
(assert (= var8 (Concat var9 var10)))
(assert (= var10 (Concat var11 var12)))
(assert (= var12 (Concat var13 var14)))
(assert (= var14 (Concat var15 var16)))
(assert (= var16 (Concat var17 var18)))
(assert (= var18 (Concat var19 var20)))
(assert (= var20 (Concat var21 var22)))
(assert (= var22 (Concat var23 var24)))
(assert (= var24 (Concat var25 var26)))
(assert (= var26 (Concat var27 var28)))
(assert (= var28 (Concat var29 var30)))
(assert (= var30 (Concat var31 var32)))
(assert (= var32 (Concat var33 var34)))
(assert (= var34 (Concat var35 var36)))
(assert (= var36 (Concat var37 var38)))
(assert (= var38 (Concat var39 var40)))
(assert (= var40 (Concat var41 var42)))
(assert (= var42 (Concat var43 var44)))
(assert (= var44 (Concat var45 var46)))
(assert (= var46 (Concat var47 var48)))
(assert (= var48 (Concat var49 var50)))
(assert (= var50 (Concat var51 var52)))
(assert (= var52 (Concat var53 var54)))
(assert (= var54 (Concat var55 var56)))
(assert (= var56 (Concat var57 var58)))
(assert (= var58 (Concat var59 var60)))
(assert (= var0 "solution"))
(assert (= "7" (CharAt var60 802)))
(assert (= "A" (CharAt var41 650)))
(assert (= "D" (CharAt var5 203)))
(assert (= "5" (CharAt var13 676)))
(assert (= "R" (CharAt var6 544)))
(assert (= "," (CharAt var47 352)))
(assert (= "A" (CharAt var36 165)))
(assert (= "]" (CharAt var50 160)))
(assert (= "Q" (CharAt var50 618)))
(assert (= "v" (CharAt var28 36)))
(assert (= "G" (CharAt var19 751)))
(assert (= "~" (CharAt var26 782)))
(assert (= "W" (CharAt var14 539)))
(assert (= "'" (CharAt var56 934)))
(assert (= "g" (CharAt var27 49)))
(assert (= ")" (CharAt var7 101)))
(assert (= "n" (CharAt var31 545)))
(assert (= "'" (CharAt var40 836)))
(assert (= "0" (CharAt var52 799)))
(assert (= "n" (CharAt var53 845)))
(assert (= "l" (CharAt var34 448)))
(assert (= "K" (CharAt var49 149)))
(assert (= "b" (CharAt var38 770)))
(assert (= "4" (CharAt var40 675)))
(assert (= "\"" (CharAt var58 971)))
(assert (= "s" (CharAt var55 492)))
(assert (= "C" (CharAt var8 253)))
(assert (= ";" (CharAt var50 322)))
(assert (= "y" (CharAt var12 824)))
(assert (= "1" (CharAt var53 7)))
(assert (= "p" (CharAt var11 695)))
(assert (= "H" (CharAt var22 392)))
(assert (= "a" (CharAt var29 223)))
(assert (= "q" (CharAt var40 112)))
(assert (= "P" (CharAt var56 111)))
(assert (= "/" (CharAt var44 386)))
(assert (= "1" (CharAt var27 372)))
(assert (= "}" (CharAt var17 673)))
(assert (= "V" (CharAt var32 700)))
(assert (= "z" (CharAt var31 317)))
(assert (= "8" (CharAt var42 211)))
(assert (= "N" (CharAt var28 644)))
(assert (= "[" (CharAt var60 296)))
(assert (= "e" (CharAt var49 78)))
(assert (= "V" (CharAt var36 44)))
(assert (= "@" (CharAt var19 82)))
(assert (= ">" (CharAt var30 399)))
(assert (= "Y" (CharAt var19 9)))
(assert (= "=" (CharAt var23 92)))
(assert (= "X" (CharAt var50 922)))
(assert (= "L" (CharAt var5 233)))
(assert (= "P" (CharAt var53 300)))
(assert (= "F" (CharAt var46 705)))
(assert (= "f" (CharAt var54 442)))
(assert (= "O" (CharAt var37 958)))
(assert (= "E" (CharAt var17 678)))
(assert (= "A" (CharAt var3 356)))
(assert (= "A" (CharAt var37 628)))
(assert (= "r" (CharAt var2 887)))
(assert (= "f" (CharAt var37 754)))
(assert (= "^" (CharAt var27 928)))
(assert (= "s" (CharAt var60 55)))
(assert (= "4" (CharAt var32 699)))
(assert (= "M" (CharAt var53 729)))
(assert (= "Q" (CharAt var50 912)))
(assert (= "B" (CharAt var29 571)))
(assert (= "+" (CharAt var31 686)))
(assert (= "[" (CharAt var56 753)))
(assert (= "S" (CharAt var54 664)))
(assert (= "#" (CharAt var41 439)))
(assert (= "|" (CharAt var29 145)))
(assert (= "t" (CharAt var16 810)))
(assert (= "d" (CharAt var53 278)))
(assert (= "Z" (CharAt var49 343)))
(assert (= "@" (CharAt var3 35)))
(assert (= ">" (CharAt var58 673)))
(assert (= "}" (CharAt var59 568)))
(assert (= "," (CharAt var28 208)))
(assert (= "s" (CharAt var11 915)))
(assert (= "{" (CharAt var25 359)))
(assert (= "1" (CharAt var40 514)))
(assert (= "v" (CharAt var16 301)))
(assert (= "$" (CharAt var3 160)))
(assert (= "K" (CharAt var52 102)))
(assert (= "X" (CharAt var59 149)))
(assert (= "x" (CharAt var55 613)))
(assert (= "z" (CharAt var34 748)))
(assert (= "m" (CharAt var46 771)))
(assert (= "E" (CharAt var40 658)))
(assert (= "D" (CharAt var29 617)))
(assert (= "?" (CharAt var43 974)))
(assert (= "L" (CharAt var48 980)))
(assert (= "q" (CharAt var24 211)))
(assert (= "P" (CharAt var52 28)))
(assert (= "\"" (CharAt var39 417)))
(assert (= "5" (CharAt var40 434)))
(assert (= "D" (CharAt var44 487)))
(assert (= "`" (CharAt var20 27)))
(assert (= "i" (CharAt var44 152)))
(assert (= "7" (CharAt var13 927)))
(assert (= "6" (CharAt var21 457)))
(assert (= "w" (CharAt var17 498)))
(assert (= "%" (CharAt var49 819)))
(assert (= "I" (CharAt var27 592)))
(assert (= "}" (CharAt var31 536)))
(assert (= "o" (CharAt var36 220)))
(assert (= "+" (CharAt var37 871)))
(assert (= "z" (CharAt var24 874)))
(assert (= "I" (CharAt var24 427)))
(assert (= "b" (CharAt var48 792)))
(assert (= "I" (CharAt var3 613)))
(assert (= "m" (CharAt var51 310)))
(assert (= "N" (CharAt var27 546)))
(assert (= "L" (CharAt var47 690)))
(assert (= "{" (CharAt var19 246)))
(assert (= "o" (CharAt var48 689)))
(assert (= "#" (CharAt var17 963)))
(assert (= "r" (CharAt var60 22)))
(assert (= "~" (CharAt var54 859)))
(assert (= "n" (CharAt var29 663)))
(assert (= "T" (CharAt var53 727)))
(assert (= "H" (CharAt var3 987)))
(assert (= "y" (CharAt var39 48)))
(assert (= "=" (CharAt var52 826)))
(assert (= "'" (CharAt var21 600)))
(assert (= ")" (CharAt var8 862)))
(assert (= "\"" (CharAt var34 880)))
(assert (= "h" (CharAt var1 813)))
(assert (= "7" (CharAt var41 696)))
(assert (= "J" (CharAt var1 38)))
(assert (= "I" (CharAt var44 692)))
(assert (= "l" (CharAt var37 775)))
(assert (= "8" (CharAt var34 295)))
(assert (= ")" (CharAt var55 480)))
(assert (= "z" (CharAt var29 576)))
(assert (= "d" (CharAt var50 478)))
(assert (= "p" (CharAt var34 587)))
(assert (= "E" (CharAt var54 491)))
(assert (= "g" (CharAt var28 494)))
(assert (= "_" (CharAt var35 890)))
(assert (= "H" (CharAt var4 395)))
(assert (= "P" (CharAt var30 857)))
(assert (= "K" (CharAt var40 335)))
(assert (= "/" (CharAt var29 780)))
(assert (= "*" (CharAt var41 118)))
(assert (= "k" (CharAt var56 600)))
(assert (= "D" (CharAt var13 329)))
(assert (= "F" (CharAt var7 80)))
(assert (= ">" (CharAt var45 473)))
(assert (= "c" (CharAt var0 64)))
(assert (= "=" (CharAt var49 83)))
(assert (= "(" (CharAt var60 157)))
(assert (= "d" (CharAt var42 616)))
(assert (= "y" (CharAt var9 693)))
(assert (= "~" (CharAt var49 217)))
(assert (= "j" (CharAt var54 118)))
(assert (= "I" (CharAt var27 228)))
(assert (= "V" (CharAt var2 428)))
(assert (= "F" (CharAt var39 516)))
(assert (= "]" (CharAt var58 816)))
(assert (= "C" (CharAt var52 231)))
(assert (= "k" (CharAt var51 998)))
(assert (= "C" (CharAt var39 859)))
(assert (= "K" (CharAt var56 209)))
(assert (= "8" (CharAt var2 84)))
(assert (= "T" (CharAt var36 345)))
(assert (= "O" (CharAt var37 605)))
(assert (= "k" (CharAt var21 24)))
(assert (= "q" (CharAt var26 969)))
(assert (= ";" (CharAt var51 614)))
(assert (= "'" (CharAt var28 456)))
(assert (= "K" (CharAt var6 167)))
(assert (= "I" (CharAt var16 209)))
(assert (= "2" (CharAt var1 39)))
(assert (= "Z" (CharAt var13 588)))
(assert (= "Q" (CharAt var60 598)))
(assert (= ";" (CharAt var23 542)))
(assert (= "i" (CharAt var45 280)))
(assert (= "/" (CharAt var58 186)))
(assert (= "|" (CharAt var56 681)))
(assert (= "#" (CharAt var17 760)))
(assert (= "6" (CharAt var38 759)))
(assert (= "U" (CharAt var30 876)))
(assert (= "n" (CharAt var31 931)))
(assert (= "&" (CharAt var39 829)))
(assert (= "K" (CharAt var43 327)))
(assert (= "S" (CharAt var34 751)))
(assert (= "l" (CharAt var21 40)))
(assert (= "t" (CharAt var42 822)))
(assert (= "7" (CharAt var9 706)))
(assert (= "d" (CharAt var36 815)))
(assert (= "K" (CharAt var39 799)))
(assert (= "~" (CharAt var14 111)))
(assert (= "C" (CharAt var33 243)))
(assert (= "C" (CharAt var22 241)))
(assert (= "!" (CharAt var49 309)))
(assert (= "O" (CharAt var57 118)))
(assert (= "*" (CharAt var11 750)))
(assert (= "5" (CharAt var13 619)))
(assert (= "9" (CharAt var26 472)))
(assert (= ";" (CharAt var13 858)))
(assert (= "M" (CharAt var15 795)))
(assert (= "5" (CharAt var22 768)))
(assert (= "K" (CharAt var10 501)))
(assert (= "_" (CharAt var0 27)))
(assert (= "7" (CharAt var45 886)))
(assert (= "+" (CharAt var25 768)))
(assert (= "r" (CharAt var31 12)))
(assert (= "5" (CharAt var10 409)))
(assert (= "]" (CharAt var25 722)))
(assert (= "u" (CharAt var1 713)))
(assert (= "x" (CharAt var34 362)))
(assert (= "B" (CharAt var16 586)))
(assert (= "Y" (CharAt var54 849)))
(assert (= "7" (CharAt var1 41)))
(assert (= "," (CharAt var54 143)))
(assert (= "E" (CharAt var59 483)))
(assert (= "|" (CharAt var12 111)))
(assert (= "o" (CharAt var0 604)))
(assert (= "Y" (CharAt var60 674)))
(assert (= "-" (CharAt var8 38)))
(assert (= "O" (CharAt var4 265)))
(assert (= "#" (CharAt var34 393)))
(assert (= "y" (CharAt var0 444)))
(assert (= "[" (CharAt var22 650)))
(assert (= "_" (CharAt var54 494)))
(assert (= "s" (CharAt var7 571)))
(assert (= ")" (CharAt var48 365)))
(assert (= "m" (CharAt var8 562)))
(assert (= ";" (CharAt var20 885)))
(assert (= "m" (CharAt var2 841)))
(assert (= "&" (CharAt var12 10)))
(assert (= "m" (CharAt var58 645)))
(assert (= "g" (CharAt var31 348)))
(assert (= "n" (CharAt var11 789)))
(assert (= "\"" (CharAt var54 591)))
(assert (= "h" (CharAt var1 883)))
(assert (= "[" (CharAt var33 758)))
(assert (= "C" (CharAt var33 685)))
(assert (= "h" (CharAt var43 780)))
(assert (= "U" (CharAt var34 722)))
(assert (= "x" (CharAt var12 961)))
(assert (= "L" (CharAt var57 695)))
(assert (= "," (CharAt var18 11)))
(assert (= "C" (CharAt var23 987)))
(assert (= "C" (CharAt var13 208)))
(assert (= "," (CharAt var25 992)))
(assert (= ":" (CharAt var17 659)))
(assert (= "3" (CharAt var33 477)))
(assert (= "h" (CharAt var4 974)))
(assert (= "D" (CharAt var17 964)))
(assert (= "a" (CharAt var57 943)))
(assert (= "^" (CharAt var39 665)))
(assert (= "\\" (CharAt var52 766)))
(assert (= "R" (CharAt var26 810)))
(assert (= "$" (CharAt var60 715)))
(assert (= "1" (CharAt var27 442)))
(assert (= "a" (CharAt var56 991)))
(assert (= "l" (CharAt var56 810)))
(assert (= "+" (CharAt var24 182)))
(assert (= ":" (CharAt var29 674)))
(assert (= "H" (CharAt var42 249)))
(assert (= "#" (CharAt var58 529)))
(assert (= "B" (CharAt var40 797)))
(assert (= "/" (CharAt var36 664)))
(assert (= "e" (CharAt var45 408)))
(assert (= "q" (CharAt var28 355)))
(assert (= "5" (CharAt var7 844)))
(assert (= "J" (CharAt var42 451)))
(assert (= "!" (CharAt var9 514)))
(assert (= "o" (CharAt var25 865)))
(assert (= "p" (CharAt var0 701)))
(assert (= "j" (CharAt var5 503)))
(assert (= "q" (CharAt var41 578)))
(assert (= "r" (CharAt var43 845)))
(assert (= "Q" (CharAt var5 222)))
(assert (= "u" (CharAt var4 270)))
(assert (= "f" (CharAt var48 591)))
(assert (= "9" (CharAt var12 454)))
(assert (= "l" (CharAt var12 157)))
(assert (= "%" (CharAt var49 747)))
(check-sat)